c File: data_files/evolved_graphs/g3849.col
c
c Auto generated graph
c
p edge 100 1804
e 1 3
e 1 4
e 1 7
e 1 11
e 1 16
e 1 19
e 1 22
e 1 40
e 1 60
e 1 78
e 1 83
e 1 87
e 1 99
e 1 100
e 2 43
e 2 52
e 2 56
e 2 98
e 2 99
e 2 100
e 3 27
e 3 44
e 3 49
e 3 50
e 3 52
e 3 54
e 3 58
e 3 61
e 4 19
e 4 29
e 4 75
e 4 88
e 4 95
e 6 10
e 6 14
e 6 20
e 6 33
e 6 45
e 6 46
e 6 74
e 7 11
e 7 14
e 7 20
e 7 22
e 7 27
e 7 28
e 7 31
e 7 34
e 7 35
e 7 36
e 7 38
e 7 43
e 7 46
e 7 52
e 7 57
e 7 58
e 7 62
e 7 66
e 7 68
e 7 70
e 7 71
e 7 72
e 7 73
e 7 75
e 7 77
e 7 79
e 7 82
e 7 83
e 7 84
e 7 88
e 7 89
e 7 90
e 7 95
e 7 97
e 7 98
e 7 99
e 8 10
e 8 12
e 8 16
e 8 18
e 8 19
e 8 22
e 8 28
e 8 31
e 8 32
e 8 34
e 8 36
e 8 38
e 8 40
e 8 43
e 8 44
e 8 46
e 8 56
e 8 63
e 8 70
e 8 76
e 8 77
e 8 86
e 8 87
e 8 89
e 9 12
e 9 16
e 9 20
e 9 22
e 9 23
e 9 25
e 9 28
e 9 29
e 9 32
e 9 34
e 9 35
e 9 38
e 9 39
e 9 48
e 9 50
e 9 51
e 9 55
e 9 62
e 9 74
e 9 77
e 9 80
e 9 84
e 9 97
e 10 12
e 10 15
e 10 16
e 10 26
e 10 29
e 10 30
e 10 31
e 10 38
e 10 41
e 10 49
e 10 50
e 10 51
e 10 57
e 10 67
e 10 75
e 10 78
e 10 81
e 10 90
e 10 93
e 10 94
e 10 98
e 11 12
e 11 13
e 11 14
e 11 16
e 11 22
e 11 27
e 11 30
e 11 36
e 11 37
e 11 38
e 11 41
e 11 44
e 11 49
e 11 51
e 11 52
e 11 56
e 11 64
e 11 66
e 11 70
e 11 71
e 11 72
e 11 77
e 11 78
e 11 84
e 11 85
e 11 86
e 11 90
e 12 16
e 12 18
e 12 22
e 12 23
e 12 27
e 12 29
e 12 30
e 12 31
e 12 32
e 12 36
e 12 38
e 12 39
e 12 40
e 12 41
e 12 43
e 12 44
e 12 48
e 12 49
e 12 50
e 12 52
e 12 54
e 12 59
e 12 62
e 12 64
e 12 65
e 12 73
e 12 77
e 12 78
e 12 79
e 12 91
e 12 92
e 12 99
e 13 14
e 13 23
e 13 27
e 13 30
e 13 31
e 13 32
e 13 34
e 13 36
e 13 37
e 13 38
e 13 39
e 13 40
e 13 47
e 13 49
e 13 52
e 13 59
e 13 63
e 13 65
e 13 76
e 13 79
e 13 80
e 13 82
e 13 87
e 13 88
e 13 90
e 13 94
e 13 98
e 14 21
e 14 31
e 14 32
e 14 35
e 14 36
e 14 38
e 14 39
e 14 40
e 14 43
e 14 44
e 14 46
e 14 47
e 14 49
e 14 50
e 14 54
e 14 55
e 14 62
e 14 90
e 14 92
e 14 93
e 14 95
e 14 97
e 14 98
e 14 99
e 14 100
e 15 16
e 15 20
e 15 21
e 15 22
e 15 29
e 15 30
e 15 32
e 15 33
e 15 35
e 15 37
e 15 39
e 15 40
e 15 44
e 15 46
e 15 55
e 15 59
e 15 61
e 15 70
e 15 71
e 15 72
e 15 73
e 15 74
e 15 75
e 15 76
e 15 80
e 15 83
e 15 85
e 15 86
e 15 87
e 15 88
e 15 89
e 15 91
e 15 94
e 15 95
e 15 99
e 15 100
e 16 19
e 16 24
e 16 26
e 16 29
e 16 31
e 16 37
e 16 39
e 16 44
e 16 47
e 16 48
e 16 49
e 16 50
e 16 51
e 16 52
e 16 58
e 16 61
e 16 63
e 16 66
e 16 69
e 16 70
e 16 71
e 16 72
e 16 73
e 16 76
e 16 78
e 16 84
e 16 85
e 16 86
e 16 88
e 16 89
e 16 92
e 16 93
e 16 98
e 16 99
e 16 100
e 17 18
e 17 19
e 17 24
e 17 26
e 17 28
e 17 29
e 17 31
e 17 32
e 17 34
e 17 37
e 17 38
e 17 42
e 17 43
e 17 50
e 17 52
e 17 56
e 17 57
e 17 60
e 17 70
e 17 71
e 17 73
e 17 74
e 17 78
e 17 79
e 17 80
e 17 82
e 17 84
e 17 86
e 17 87
e 17 88
e 17 91
e 17 92
e 17 96
e 17 97
e 17 98
e 17 99
e 18 19
e 18 21
e 18 28
e 18 30
e 18 31
e 18 34
e 18 35
e 18 39
e 18 40
e 18 42
e 18 49
e 18 57
e 18 70
e 18 72
e 18 76
e 18 77
e 18 78
e 18 79
e 18 81
e 18 82
e 18 83
e 18 86
e 18 88
e 18 90
e 18 93
e 18 94
e 18 95
e 18 98
e 18 100
e 19 27
e 19 31
e 19 33
e 19 37
e 19 38
e 19 39
e 19 40
e 19 49
e 19 52
e 19 63
e 19 64
e 19 68
e 19 69
e 19 70
e 19 71
e 19 74
e 19 76
e 19 77
e 19 79
e 19 82
e 19 83
e 19 88
e 19 89
e 19 90
e 19 92
e 19 98
e 19 100
e 20 26
e 20 28
e 20 29
e 20 31
e 20 34
e 20 35
e 20 36
e 20 38
e 20 39
e 20 46
e 20 48
e 20 53
e 20 54
e 20 55
e 20 56
e 20 57
e 20 59
e 20 60
e 20 61
e 20 63
e 20 64
e 20 65
e 20 66
e 20 68
e 20 72
e 20 73
e 20 74
e 20 75
e 20 76
e 20 81
e 20 82
e 20 85
e 20 88
e 20 89
e 20 91
e 20 92
e 20 94
e 20 95
e 20 96
e 20 97
e 20 98
e 20 100
e 21 22
e 21 24
e 21 26
e 21 27
e 21 28
e 21 32
e 21 33
e 21 34
e 21 36
e 21 38
e 21 40
e 21 41
e 21 42
e 21 49
e 21 52
e 21 54
e 21 55
e 21 56
e 21 59
e 21 61
e 21 62
e 21 63
e 21 64
e 21 66
e 21 69
e 21 71
e 21 72
e 21 73
e 21 76
e 21 81
e 21 82
e 21 83
e 21 87
e 21 88
e 21 89
e 21 90
e 21 92
e 21 95
e 21 96
e 21 99
e 22 23
e 22 26
e 22 27
e 22 29
e 22 35
e 22 42
e 22 44
e 22 46
e 22 51
e 22 52
e 22 53
e 22 55
e 22 56
e 22 57
e 22 60
e 22 61
e 22 62
e 22 63
e 22 64
e 22 65
e 22 68
e 22 70
e 22 71
e 22 72
e 22 73
e 22 76
e 22 77
e 22 78
e 22 82
e 22 83
e 22 87
e 22 91
e 22 93
e 22 94
e 22 95
e 22 96
e 22 97
e 23 24
e 23 26
e 23 27
e 23 29
e 23 30
e 23 48
e 23 49
e 23 50
e 23 52
e 23 53
e 23 54
e 23 55
e 23 56
e 23 59
e 23 61
e 23 62
e 23 64
e 23 65
e 23 67
e 23 69
e 23 71
e 23 72
e 23 73
e 23 77
e 23 79
e 23 80
e 23 83
e 23 84
e 23 86
e 23 87
e 23 88
e 23 95
e 23 96
e 23 97
e 23 98
e 24 27
e 24 28
e 24 29
e 24 36
e 24 37
e 24 38
e 24 46
e 24 48
e 24 52
e 24 54
e 24 55
e 24 56
e 24 57
e 24 59
e 24 60
e 24 62
e 24 64
e 24 65
e 24 66
e 24 72
e 24 75
e 24 76
e 24 78
e 24 79
e 24 80
e 24 81
e 24 82
e 24 85
e 24 87
e 24 89
e 24 91
e 24 95
e 24 96
e 24 98
e 24 99
e 25 27
e 25 38
e 25 39
e 25 40
e 25 47
e 25 55
e 25 63
e 25 67
e 25 69
e 25 73
e 25 78
e 25 79
e 25 80
e 25 81
e 25 82
e 25 83
e 25 94
e 25 95
e 25 97
e 25 98
e 25 99
e 26 30
e 26 35
e 26 37
e 26 38
e 26 40
e 26 42
e 26 50
e 26 52
e 26 53
e 26 57
e 26 61
e 26 63
e 26 68
e 26 69
e 26 71
e 26 72
e 26 73
e 26 74
e 26 77
e 26 79
e 26 80
e 26 82
e 26 83
e 26 85
e 26 87
e 26 88
e 26 89
e 26 92
e 26 98
e 26 100
e 27 29
e 27 30
e 27 33
e 27 38
e 27 39
e 27 41
e 27 43
e 27 44
e 27 45
e 27 47
e 27 48
e 27 51
e 27 53
e 27 58
e 27 62
e 27 68
e 27 69
e 27 70
e 27 72
e 27 74
e 27 75
e 27 76
e 27 77
e 27 79
e 27 80
e 27 82
e 27 83
e 27 84
e 27 85
e 27 86
e 27 87
e 27 89
e 27 91
e 27 93
e 27 97
e 27 98
e 27 99
e 28 29
e 28 32
e 28 47
e 28 49
e 28 51
e 28 69
e 28 70
e 28 71
e 28 72
e 28 74
e 28 76
e 28 78
e 28 80
e 28 81
e 28 82
e 28 83
e 28 86
e 28 87
e 28 89
e 28 91
e 28 94
e 28 96
e 29 30
e 29 32
e 29 33
e 29 36
e 29 37
e 29 38
e 29 42
e 29 43
e 29 44
e 29 47
e 29 54
e 29 56
e 29 59
e 29 65
e 29 71
e 29 74
e 29 75
e 29 77
e 29 78
e 29 80
e 29 81
e 29 82
e 29 85
e 29 89
e 29 90
e 29 93
e 29 96
e 29 97
e 29 99
e 30 33
e 30 34
e 30 36
e 30 37
e 30 38
e 30 40
e 30 43
e 30 44
e 30 45
e 30 48
e 30 49
e 30 54
e 30 69
e 30 71
e 30 72
e 30 73
e 30 75
e 30 76
e 30 77
e 30 78
e 30 81
e 30 82
e 30 84
e 30 87
e 30 91
e 30 92
e 30 95
e 30 99
e 31 34
e 31 36
e 31 37
e 31 42
e 31 43
e 31 46
e 31 48
e 31 49
e 31 50
e 31 51
e 31 53
e 31 55
e 31 56
e 31 60
e 31 63
e 31 67
e 31 73
e 31 76
e 31 79
e 31 81
e 31 82
e 31 83
e 31 85
e 31 88
e 31 91
e 31 95
e 31 97
e 31 99
e 32 33
e 32 34
e 32 47
e 32 48
e 32 52
e 32 55
e 32 61
e 32 62
e 32 63
e 32 69
e 32 70
e 32 71
e 32 72
e 32 74
e 32 75
e 32 76
e 32 78
e 32 80
e 32 81
e 32 83
e 32 84
e 32 85
e 32 86
e 32 87
e 32 89
e 32 90
e 32 91
e 32 93
e 32 96
e 33 35
e 33 37
e 33 39
e 33 44
e 33 45
e 33 46
e 33 49
e 33 51
e 33 52
e 33 53
e 33 54
e 33 55
e 33 59
e 33 60
e 33 61
e 33 73
e 33 74
e 33 75
e 33 78
e 33 79
e 33 80
e 33 81
e 33 82
e 33 84
e 33 85
e 33 86
e 33 87
e 33 89
e 33 91
e 33 93
e 33 94
e 33 99
e 34 40
e 34 42
e 34 46
e 34 47
e 34 48
e 34 49
e 34 52
e 34 53
e 34 57
e 34 60
e 34 61
e 34 63
e 34 66
e 34 67
e 34 69
e 34 70
e 34 71
e 34 72
e 34 73
e 34 75
e 34 82
e 34 83
e 34 87
e 34 89
e 34 90
e 34 91
e 34 93
e 34 94
e 34 96
e 34 98
e 35 42
e 35 43
e 35 44
e 35 46
e 35 47
e 35 50
e 35 53
e 35 55
e 35 66
e 35 71
e 35 72
e 35 74
e 35 80
e 35 83
e 35 84
e 35 85
e 35 86
e 35 87
e 35 88
e 35 89
e 35 92
e 35 94
e 35 95
e 35 98
e 35 99
e 36 42
e 36 43
e 36 47
e 36 51
e 36 60
e 36 62
e 36 64
e 36 69
e 36 73
e 36 74
e 36 75
e 36 78
e 36 79
e 36 80
e 36 81
e 36 82
e 36 83
e 36 85
e 36 86
e 36 99
e 37 39
e 37 42
e 37 43
e 37 44
e 37 47
e 37 49
e 37 50
e 37 51
e 37 57
e 37 59
e 37 64
e 37 69
e 37 70
e 37 74
e 37 75
e 37 76
e 37 78
e 37 79
e 37 80
e 37 84
e 37 86
e 37 87
e 37 90
e 37 92
e 37 93
e 37 94
e 37 95
e 37 98
e 37 99
e 38 42
e 38 44
e 38 48
e 38 54
e 38 56
e 38 59
e 38 64
e 38 65
e 38 67
e 38 70
e 38 71
e 38 72
e 38 74
e 38 81
e 38 85
e 38 87
e 38 88
e 38 90
e 38 91
e 38 92
e 38 94
e 38 96
e 38 97
e 38 98
e 38 99
e 38 100
e 39 43
e 39 44
e 39 45
e 39 46
e 39 48
e 39 50
e 39 51
e 39 54
e 39 55
e 39 57
e 39 58
e 39 62
e 39 65
e 39 66
e 39 67
e 39 69
e 39 71
e 39 72
e 39 73
e 39 76
e 39 77
e 39 78
e 39 81
e 39 82
e 39 90
e 39 92
e 39 93
e 39 99
e 40 43
e 40 45
e 40 46
e 40 49
e 40 51
e 40 52
e 40 55
e 40 56
e 40 61
e 40 71
e 40 72
e 40 75
e 40 76
e 40 78
e 40 82
e 40 83
e 40 86
e 40 88
e 40 89
e 40 91
e 40 92
e 40 96
e 41 43
e 41 48
e 41 49
e 41 55
e 41 56
e 41 57
e 41 59
e 41 61
e 41 62
e 41 66
e 41 69
e 41 73
e 41 76
e 41 79
e 41 80
e 41 82
e 41 83
e 41 85
e 41 87
e 41 89
e 41 91
e 41 92
e 41 96
e 41 98
e 41 99
e 42 47
e 42 48
e 42 54
e 42 55
e 42 56
e 42 60
e 42 63
e 42 72
e 42 73
e 42 76
e 42 77
e 42 81
e 42 82
e 42 83
e 42 84
e 42 85
e 42 86
e 42 89
e 42 91
e 42 93
e 42 94
e 42 96
e 42 97
e 42 98
e 42 99
e 42 100
e 43 45
e 43 49
e 43 52
e 43 53
e 43 55
e 43 56
e 43 57
e 43 58
e 43 59
e 43 63
e 43 64
e 43 69
e 43 70
e 43 74
e 43 78
e 43 79
e 43 80
e 43 81
e 43 82
e 43 84
e 43 85
e 43 86
e 43 90
e 43 91
e 43 94
e 43 96
e 43 98
e 43 99
e 44 47
e 44 48
e 44 54
e 44 61
e 44 64
e 44 68
e 44 70
e 44 72
e 44 73
e 44 76
e 44 78
e 44 79
e 44 82
e 44 87
e 44 88
e 44 89
e 44 90
e 44 92
e 44 93
e 44 96
e 44 98
e 44 99
e 45 46
e 45 47
e 45 56
e 45 57
e 45 58
e 45 59
e 45 61
e 45 66
e 45 68
e 45 69
e 45 70
e 45 71
e 45 73
e 45 74
e 45 76
e 45 78
e 45 81
e 45 82
e 45 83
e 45 85
e 45 87
e 45 88
e 45 89
e 45 90
e 45 92
e 45 95
e 45 97
e 45 100
e 46 47
e 46 52
e 46 53
e 46 59
e 46 68
e 46 69
e 46 70
e 46 72
e 46 76
e 46 77
e 46 78
e 46 81
e 46 85
e 46 87
e 46 92
e 46 95
e 46 96
e 46 97
e 46 100
e 47 51
e 47 52
e 47 54
e 47 59
e 47 63
e 47 64
e 47 65
e 47 67
e 47 69
e 47 75
e 47 77
e 47 78
e 47 81
e 47 83
e 47 85
e 47 87
e 47 88
e 47 89
e 47 91
e 47 92
e 47 93
e 47 95
e 47 96
e 47 99
e 47 100
e 48 50
e 48 51
e 48 52
e 48 53
e 48 54
e 48 56
e 48 58
e 48 60
e 48 62
e 48 63
e 48 65
e 48 67
e 48 69
e 48 70
e 48 71
e 48 72
e 48 73
e 48 75
e 48 78
e 48 80
e 48 81
e 48 82
e 48 83
e 48 87
e 48 91
e 48 92
e 48 96
e 48 100
e 49 50
e 49 52
e 49 53
e 49 54
e 49 55
e 49 57
e 49 59
e 49 61
e 49 62
e 49 63
e 49 69
e 49 71
e 49 72
e 49 76
e 49 78
e 49 80
e 49 81
e 49 82
e 49 83
e 49 88
e 49 93
e 49 97
e 49 98
e 50 53
e 50 57
e 50 60
e 50 61
e 50 62
e 50 71
e 50 72
e 50 74
e 50 76
e 50 78
e 50 80
e 50 82
e 50 83
e 50 89
e 50 91
e 50 93
e 50 94
e 50 99
e 51 52
e 51 53
e 51 55
e 51 57
e 51 59
e 51 60
e 51 61
e 51 62
e 51 66
e 51 67
e 51 68
e 51 69
e 51 70
e 51 71
e 51 74
e 51 75
e 51 76
e 51 79
e 51 80
e 51 81
e 51 83
e 51 87
e 51 88
e 51 89
e 51 90
e 51 91
e 51 92
e 51 95
e 51 96
e 51 98
e 51 99
e 52 53
e 52 56
e 52 62
e 52 68
e 52 69
e 52 71
e 52 73
e 52 76
e 52 79
e 52 80
e 52 83
e 52 84
e 52 85
e 52 86
e 52 87
e 52 88
e 52 89
e 52 90
e 52 92
e 52 93
e 52 94
e 52 96
e 52 99
e 53 57
e 53 59
e 53 62
e 53 63
e 53 64
e 53 66
e 53 67
e 53 70
e 53 71
e 53 74
e 53 75
e 53 77
e 53 79
e 53 80
e 53 81
e 53 83
e 53 85
e 53 86
e 53 88
e 53 89
e 53 90
e 53 91
e 53 92
e 53 95
e 53 96
e 53 97
e 53 100
e 54 56
e 54 57
e 54 59
e 54 60
e 54 62
e 54 69
e 54 70
e 54 71
e 54 72
e 54 74
e 54 75
e 54 76
e 54 77
e 54 78
e 54 80
e 54 83
e 54 86
e 54 87
e 54 92
e 54 93
e 54 94
e 54 95
e 54 99
e 55 57
e 55 58
e 55 61
e 55 63
e 55 64
e 55 65
e 55 68
e 55 69
e 55 72
e 55 73
e 55 75
e 55 77
e 55 78
e 55 80
e 55 81
e 55 82
e 55 83
e 55 84
e 55 85
e 55 88
e 55 90
e 55 91
e 55 99
e 55 100
e 56 58
e 56 61
e 56 62
e 56 65
e 56 71
e 56 72
e 56 74
e 56 76
e 56 78
e 56 79
e 56 81
e 56 86
e 56 87
e 56 92
e 56 93
e 56 94
e 56 95
e 56 97
e 56 98
e 56 99
e 56 100
e 57 63
e 57 64
e 57 65
e 57 66
e 57 68
e 57 73
e 57 74
e 57 80
e 57 82
e 57 83
e 57 84
e 57 85
e 57 86
e 57 87
e 57 90
e 57 91
e 57 92
e 57 93
e 57 98
e 57 99
e 57 100
e 58 62
e 58 63
e 58 64
e 58 65
e 58 67
e 58 68
e 58 71
e 58 73
e 58 76
e 58 77
e 58 80
e 58 83
e 58 84
e 58 85
e 58 86
e 58 87
e 58 89
e 58 90
e 58 92
e 58 95
e 58 99
e 59 60
e 59 62
e 59 65
e 59 66
e 59 67
e 59 71
e 59 73
e 59 78
e 59 84
e 59 85
e 59 89
e 59 90
e 59 91
e 59 92
e 59 96
e 59 98
e 60 65
e 60 70
e 60 72
e 60 73
e 60 76
e 60 82
e 60 83
e 60 88
e 60 93
e 60 95
e 60 99
e 61 67
e 61 69
e 61 75
e 61 76
e 61 79
e 61 81
e 61 86
e 61 87
e 61 88
e 61 92
e 61 93
e 61 95
e 61 96
e 61 97
e 61 99
e 61 100
e 62 63
e 62 67
e 62 71
e 62 73
e 62 78
e 62 79
e 62 91
e 62 94
e 62 97
e 62 98
e 62 99
e 63 64
e 63 65
e 63 69
e 63 73
e 63 74
e 63 82
e 63 84
e 63 86
e 63 87
e 63 88
e 63 89
e 63 90
e 63 95
e 63 96
e 63 98
e 64 66
e 64 68
e 64 75
e 64 80
e 64 83
e 64 87
e 64 89
e 64 96
e 64 99
e 64 100
e 65 66
e 65 70
e 65 71
e 65 82
e 65 85
e 65 97
e 65 98
e 65 99
e 65 100
e 66 69
e 66 70
e 66 73
e 66 76
e 66 77
e 66 80
e 66 83
e 66 85
e 66 86
e 66 89
e 66 92
e 66 94
e 66 95
e 66 96
e 66 97
e 66 98
e 66 99
e 67 73
e 67 75
e 67 77
e 67 78
e 67 84
e 67 91
e 67 93
e 67 96
e 67 97
e 67 98
e 67 99
e 67 100
e 68 69
e 68 71
e 68 72
e 68 74
e 68 81
e 68 87
e 68 89
e 68 91
e 68 92
e 68 94
e 68 95
e 68 96
e 68 97
e 68 98
e 68 100
e 69 71
e 69 72
e 69 82
e 69 83
e 69 85
e 69 86
e 69 95
e 69 100
e 70 71
e 70 73
e 70 75
e 70 76
e 70 79
e 70 85
e 70 88
e 70 91
e 70 92
e 70 97
e 70 99
e 70 100
e 71 72
e 71 73
e 71 77
e 71 78
e 71 82
e 71 84
e 71 85
e 71 90
e 71 95
e 71 96
e 71 98
e 72 73
e 72 75
e 72 79
e 72 88
e 72 89
e 72 93
e 72 94
e 72 96
e 72 100
e 73 74
e 73 77
e 73 83
e 73 87
e 73 88
e 73 92
e 73 93
e 73 94
e 73 95
e 73 96
e 73 97
e 73 98
e 73 99
e 74 81
e 74 82
e 74 84
e 74 86
e 74 88
e 74 89
e 74 93
e 74 95
e 74 96
e 74 99
e 74 100
e 75 76
e 75 83
e 75 84
e 75 86
e 75 88
e 75 94
e 75 95
e 75 96
e 75 97
e 75 98
e 75 99
e 76 79
e 76 87
e 76 91
e 76 95
e 76 96
e 77 80
e 77 84
e 77 85
e 77 90
e 77 92
e 77 95
e 77 98
e 77 100
e 78 79
e 78 80
e 78 84
e 78 86
e 78 89
e 78 90
e 78 93
e 78 95
e 79 81
e 79 85
e 79 86
e 79 88
e 79 89
e 79 90
e 79 94
e 79 95
e 79 98
e 79 99
e 79 100
e 80 90
e 80 91
e 80 94
e 80 97
e 81 84
e 81 85
e 81 89
e 81 91
e 81 92
e 81 93
e 81 94
e 81 96
e 81 98
e 81 99
e 82 85
e 82 86
e 82 87
e 82 93
e 82 94
e 82 95
e 82 99
e 83 85
e 83 87
e 83 90
e 83 93
e 83 94
e 83 98
e 83 99
e 84 94
e 84 95
e 84 97
e 84 98
e 84 99
e 85 88
e 85 90
e 85 92
e 85 93
e 85 95
e 85 98
e 85 99
e 85 100
e 86 87
e 86 89
e 86 90
e 86 93
e 86 94
e 86 95
e 86 96
e 86 98
e 86 99
e 87 93
e 87 97
e 87 98
e 87 99
e 87 100
e 88 97
e 88 98
e 88 99
e 88 100
e 89 97
e 89 99
e 90 92
e 90 95
e 90 96
e 90 97
e 90 98
e 90 99
e 90 100
e 91 92
e 91 93
e 91 94
e 91 95
e 91 97
e 91 99
e 91 100
e 92 93
e 92 95
e 92 97
e 92 98
e 92 99
e 93 95
e 93 96
e 93 99
e 94 96
e 94 97
e 95 100
e 96 98
e 96 100
e 98 100
